n_res = 5;
n_events = 22;
n_prec = 47;
source = 1;
sink = 22;
min_lvl = [-6, -8, -2, -5, 3];
max_lvl = [0, 0, 4, 0, 11];
rr = [| 0, 0, 0, 1, -1, 0, 0, -1, -1, 0, 0, 2, -2, 1, 0, -1, -1, -1, 0, 0, -2, 0
      | 0, -1, -1, 2, -1, 0, -2, 0, 0, -2, 2, -2, 1, -2, 1, -1, -1, 0, 0, 1, 0, 0
      | 0, -1, 1, 0, -1, 0, 0, 0, 1, 1, -1, 0, -2, 2, 0, 1, -1, 0, 2, -2, 0, 0
      | 0, -1, 0, 0, 0, 0, 0, -1, 0, 0, 0, 1, -2, -1, -2, 0, 2, -2, 1, 0, 0, 0
      | 0, 0, 2, 2, 0, -2, 2, 0, -2, 1, 0, 2, 0, -1, 0, 2, 2, 1, 0, 1, 0, 0 |];
prec = [| 1, 0, 4
        | 1, 0, 2
        | 1, 0, 3
        | 2, 12, 11
        | 2, 3, 17
        | 3, 17, 18
        | 3, 1, 21
        | 4, 12, 16
        | 5, 3, 13
        | 6, 4, 9
        | 6, 4, 8
        | 7, 4, 11
        | 7, -24, 18
        | 7, 17, 21
        | 8, 1, 19
        | 9, 10, 8
        | 10, -27, 16
        | 10, 19, 20
        | 11, -55, 7
        | 11, 8, 21
        | 12, -52, 4
        | 12, -48, 16
        | 12, 9, 19
        | 12, 1, 6
        | 13, -47, 3
        | 13, 4, 7
        | 13, -35, 19
        | 14, 5, 18
        | 15, 2, 21
        | 15, -11, 17
        | 15, 2, 11
        | 15, -14, 2
        | 16, 9, 10
        | 17, -5, 2
        | 17, 2, 11
        | 17, 21, 21
        | 17, 9, 15
        | 18, -4, 5
        | 19, -1, 7
        | 19, 4, 13
        | 19, 2, 14
        | 20, -42, 16
        | 20, 23, 11
        | 20, -7, 12
        | 21, -49, 19
        | 21, -62, 13
        | 21, 4, 22 |];
